<number of tasks>
50

<cycle time>
1000

<order strength>
0.596


<task times>
1 137
2 66
3 292
4 76
5 162
6 205
7 135
8 116
9 160
10 40
11 167
12 265
13 139
14 65
15 24
16 215
17 164
18 64
19 159
20 159
21 79
22 49
23 233
24 131
25 66
26 67
27 236
28 98
29 180
30 107
31 27
32 165
33 90
34 60
35 148
36 125
37 184
38 134
39 92
40 157
41 57
42 36
43 151
44 216
45 124
46 175
47 114
48 221
49 152
50 110

<precedence relations>
1,6
1,14
2,4
2,9
2,10
3,4
3,5
3,7
3,8
4,13
4,15
4,17
4,19
5,11
5,13
5,14
5,16
5,22
6,11
6,25
7,13
7,42
7,46
8,14
8,15
8,16
8,18
9,11
9,13
10,12
10,13
10,22
11,19
11,30
12,36
13,23
13,25
13,34
14,25
14,26
14,28
14,33
14,34
15,20
15,22
16,19
16,20
16,21
16,29
16,33
16,34
17,22
18,19
18,20
18,26
18,33
18,34
19,32
20,23
20,27
20,32
21,23
21,26
21,38
22,24
22,25
22,26
23,41
23,50
24,28
24,30
25,27
25,29
26,43
27,31
27,37
27,41
28,31
28,32
28,39
29,43
30,33
30,34
31,35
32,36
33,42
34,37
34,41
35,45
35,48
35,49
36,38
36,41
37,39
37,40
38,42
38,45
38,46
39,43
39,47
39,49
40,43
40,48
41,44
42,49
44,47
44,48
45,50
46,49

<end>
